
%FILE DATA:	Soccer Computational Problem for MiniZinc Models	%
%AUTHOR:	Jack Wall	%
%CONTACT:  	116397063@umail.ucc.ie			%
%LAST UPDATE:	03/16/2020, 13:59:12						%
%DESCRIPTION: 	140 games played with 42 games left				%


n=14; %number of teams

%Games to play
games=[|2,8|1,13|1,10|1,12|9,6|6,8|6,2|7,13|2,14|3,10|13,3|10,8|10,13|4,11|14,8|10,6|1,14|3,2|4,6|13,7|9,4|7,5|2,10|10,14|6,5|1,4|11,3|9,5|11,1|4,3|7,4|3,13|6,3|2,3|14,9|3,1|13,2|5,12|3,6|12,5|7,3|10,12|];

%Initial points
iPoints=[22,22,17,27,17,22,25,29,28,26,32,40,37,30];

%POSITION CONSTRAINTS
% [|teamID, operator, position|...]
% operators index:
%  1 for =  operator
%  2 for >  operator
%  3 for >= operator
%  4 for <  operator
%  5 for <= operator
positionConstraints=[|12,3,1|13,2,1|14,5,3|11,2,3|];